100
100
3000 3000 3000 3000 3000 3000 3000 3000 3000 3000 3000 3000 3000 3000 3000 3000 3000 3000 3000 3000 3000 3000 3000 3000 3000 3000 3000 3000 3000 3000 3000 3000 3000 3000 3000 3000 3000 3000 3000 3000 3000 3000 3000 3000 3000 3000 3000 3000 3000 3000 3000 3000 3000 3000 3000 3000 3000 3000 3000 3000 3000 3000 3000 3000 3000 3000 3000 3000 3000 3000 3000 3000 3000 3000 3000 3000 3000 3000 3000 3000 3000 3000 3000 3000 3000 3000 3000 3000 3000 3000 3000 3000 3000 3000 3000 3000 3000 3000 3000 3000
0 13 1
0 43 3
0 49 3
0 58 4
0 65 1
0 85 0
0 88 2
0 92 1
0 93 0
0 97 2
1 1 1
1 2 2
1 28 1
1 38 4
1 40 3
1 45 2
1 57 4
1 58 2
1 69 0
1 72 1
2 5 1
2 21 4
2 23 3
2 31 2
2 43 2
2 48 3
2 49 2
2 60 2
2 66 2
2 68 1
3 5 1
3 8 3
3 27 2
3 31 2
3 35 0
3 39 3
3 42 3
3 61 4
3 73 3
3 74 4
4 14 0
4 17 0
4 19 0
4 27 4
4 32 4
4 34 2
4 38 0
4 51 1
4 56 4
4 60 3
5 22 2
5 26 0
5 43 4
5 71 1
5 82 3
5 85 4
5 88 0
5 95 4
5 98 3
5 99 0
6 1 1
6 3 3
6 10 0
6 17 4
6 24 1
6 25 3
6 41 1
6 47 0
6 70 4
6 74 3
7 2 1
7 3 4
7 6 4
7 10 2
7 11 4
7 13 3
7 41 1
7 42 2
7 47 1
7 59 3
8 23 3
8 30 2
8 31 1
8 34 2
8 45 4
8 55 0
8 58 2
8 70 2
8 79 0
8 84 1
9 2 0
9 12 3
9 16 2
9 58 1
9 74 1
9 84 3
9 92 4
9 97 0
9 98 0
9 99 4
10 24 1
10 41 2
10 48 2
10 61 1
10 66 1
10 69 1
10 73 0
10 82 2
10 86 1
10 95 4
11 58 2
11 74 3
11 75 4
11 82 1
11 85 4
11 86 2
11 89 0
11 94 4
11 96 2
11 99 3
12 16 4
12 21 0
12 38 3
12 40 0
12 44 1
12 45 4
12 50 3
12 69 0
12 76 1
12 91 0
13 13 2
13 15 3
13 17 1
13 20 3
13 21 2
13 33 1
13 38 0
13 41 1
13 68 3
13 76 0
14 6 2
14 30 2
14 33 0
14 57 3
14 72 2
14 75 2
14 84 0
14 90 0
14 92 3
14 94 1
15 4 0
15 9 2
15 20 4
15 29 2
15 35 0
15 43 1
15 54 1
15 56 1
15 57 1
15 63 4
16 7 3
16 19 2
16 35 2
16 42 2
16 62 4
16 70 3
16 72 2
16 75 1
16 90 1
16 91 3
17 5 0
17 17 2
17 36 1
17 50 0
17 64 2
17 72 3
17 80 2
17 83 3
17 84 2
17 89 4
18 11 3
18 14 4
18 15 3
18 17 0
18 30 1
18 33 1
18 45 0
18 49 3
18 52 1
18 55 3
19 3 2
19 7 1
19 20 4
19 26 3
19 62 0
19 63 1
19 65 0
19 81 1
19 87 2
19 88 0
20 20 3
20 25 4
20 32 2
20 44 2
20 46 0
20 48 2
20 89 3
20 91 2
20 93 0
20 99 0
21 31 0
21 37 2
21 39 0
21 56 1
21 66 3
21 76 4
21 95 2
21 96 0
21 97 3
21 99 1
22 0 4
22 3 2
22 6 0
22 13 3
22 14 3
22 17 1
22 39 0
22 40 3
22 50 3
22 70 4
23 9 0
23 22 4
23 24 0
23 26 2
23 30 3
23 42 3
23 45 4
23 46 3
23 60 1
23 76 3
24 0 3
24 17 4
24 21 1
24 22 2
24 48 1
24 62 1
24 63 3
24 68 0
24 72 0
24 76 0
25 8 4
25 9 2
25 26 1
25 34 3
25 45 1
25 77 1
25 78 2
25 79 4
25 87 2
25 94 1
26 24 0
26 32 4
26 39 0
26 52 2
26 53 0
26 62 1
26 64 2
26 75 0
26 79 0
26 85 3
27 0 0
27 4 1
27 11 0
27 18 4
27 24 2
27 26 2
27 41 1
27 46 1
27 64 3
27 80 0
28 3 4
28 10 1
28 14 0
28 18 3
28 21 4
28 28 2
28 32 3
28 33 1
28 42 3
28 45 3
29 1 2
29 26 4
29 38 4
29 42 1
29 49 0
29 57 0
29 66 4
29 87 3
29 93 0
29 97 0
30 11 4
30 29 0
30 68 3
30 70 4
30 76 3
30 78 4
30 81 1
30 87 1
30 91 4
30 97 3
31 3 4
31 16 2
31 25 0
31 43 2
31 45 2
31 51 0
31 65 1
31 74 2
31 78 0
31 79 4
32 26 0
32 43 3
32 54 0
32 61 1
32 81 2
32 84 1
32 89 2
32 90 2
32 92 1
32 93 0
33 6 1
33 32 0
33 39 0
33 63 1
33 77 1
33 80 3
33 82 3
33 90 3
33 92 2
33 93 3
34 9 2
34 16 2
34 22 0
34 44 0
34 48 3
34 53 1
34 61 4
34 62 3
34 76 4
34 78 4
35 12 1
35 19 1
35 28 2
35 56 1
35 84 1
35 87 4
35 90 0
35 94 0
35 98 0
35 99 1
36 6 2
36 11 2
36 18 3
36 26 2
36 66 2
36 70 2
36 78 2
36 82 4
36 83 3
36 84 3
37 8 4
37 59 2
37 72 1
37 80 0
37 81 3
37 85 1
37 91 3
37 92 4
37 97 4
37 98 0
38 5 1
38 9 3
38 14 2
38 27 0
38 29 0
38 43 4
38 46 3
38 47 2
38 56 1
38 69 1
39 11 3
39 42 0
39 54 0
39 60 2
39 75 1
39 83 2
39 92 1
39 93 4
39 94 1
39 96 4
40 1 3
40 12 3
40 22 1
40 68 2
40 76 3
40 80 4
40 84 4
40 91 4
40 96 1
40 97 1
41 6 4
41 10 1
41 11 1
41 31 3
41 49 2
41 53 1
41 63 2
41 71 2
41 72 0
41 88 1
42 7 4
42 17 4
42 18 3
42 23 3
42 35 4
42 38 4
42 39 4
42 56 2
42 69 0
42 72 2
43 0 2
43 4 4
43 5 4
43 28 0
43 29 4
43 34 3
43 39 4
43 44 2
43 58 0
43 59 1
44 0 0
44 14 3
44 18 1
44 24 4
44 25 3
44 28 2
44 40 3
44 71 1
44 73 2
44 74 0
45 1 2
45 15 0
45 19 4
45 20 1
45 33 3
45 34 2
45 53 0
45 57 4
45 80 3
45 83 3
46 5 0
46 16 4
46 20 1
46 30 1
46 37 1
46 44 4
46 64 2
46 65 0
46 71 2
46 91 4
47 11 3
47 21 2
47 27 4
47 30 4
47 34 0
47 36 1
47 41 2
47 45 4
47 50 4
47 68 0
48 2 0
48 7 3
48 39 0
48 48 4
48 52 3
48 61 1
48 76 2
48 77 4
48 83 3
48 88 0
49 4 2
49 10 4
49 27 1
49 34 1
49 49 3
49 53 0
49 63 1
49 73 2
49 75 0
49 81 4
50 13 2
50 18 3
50 20 0
50 31 3
50 36 4
50 43 0
50 59 3
50 69 3
50 71 0
50 75 2
51 1 0
51 8 4
51 9 1
51 15 3
51 16 1
51 43 3
51 47 0
51 51 4
51 54 4
51 61 4
52 29 2
52 34 3
52 35 4
52 36 3
52 40 4
52 44 2
52 46 4
52 51 0
52 67 0
52 70 2
53 9 1
53 12 4
53 16 3
53 19 3
53 40 0
53 47 0
53 66 2
53 67 4
53 79 0
53 81 4
54 3 4
54 7 2
54 23 3
54 24 1
54 32 3
54 55 0
54 83 1
54 84 1
54 85 1
54 86 1
55 7 3
55 9 0
55 36 2
55 37 2
55 38 0
55 46 4
55 70 4
55 73 2
55 82 3
55 99 3
56 1 2
56 13 2
56 25 2
56 35 1
56 40 4
56 44 3
56 49 1
56 61 4
56 87 3
56 94 0
57 0 0
57 4 4
57 10 3
57 13 4
57 29 0
57 51 4
57 58 4
57 73 4
57 80 1
57 90 1
58 10 4
58 12 2
58 15 0
58 27 4
58 47 4
58 49 2
58 50 1
58 59 4
58 60 3
58 64 3
59 4 2
59 13 4
59 23 4
59 25 3
59 29 3
59 48 2
59 57 3
59 74 2
59 78 3
59 81 2
60 23 4
60 33 0
60 53 0
60 55 1
60 65 1
60 88 1
60 91 1
60 97 0
60 98 4
60 99 2
61 4 0
61 10 4
61 13 1
61 36 3
61 37 4
61 51 2
61 55 3
61 66 0
61 67 0
61 71 0
62 6 0
62 35 3
62 38 4
62 46 4
62 54 3
62 56 0
62 57 3
62 64 1
62 65 3
62 66 0
63 35 0
63 52 0
63 56 1
63 63 1
63 81 2
63 86 1
63 87 2
63 89 2
63 90 4
63 91 3
64 2 0
64 26 4
64 30 1
64 41 3
64 65 3
64 83 2
64 84 3
64 86 3
64 91 1
64 93 1
65 0 4
65 4 4
65 20 3
65 22 2
65 25 1
65 31 0
65 35 2
65 38 2
65 54 2
65 61 4
66 12 3
66 16 0
66 21 3
66 23 1
66 32 1
66 40 3
66 58 3
66 68 2
66 82 4
66 87 1
67 6 0
67 20 2
67 28 3
67 36 3
67 37 0
67 46 4
67 53 3
67 66 2
67 69 4
67 77 2
68 7 1
68 14 1
68 24 1
68 27 3
68 40 4
68 59 4
68 65 4
68 67 2
68 79 1
68 81 4
69 27 3
69 28 3
69 33 3
69 37 4
69 59 4
69 73 0
69 77 1
69 82 1
69 89 1
69 95 2
70 13 4
70 15 0
70 18 0
70 55 3
70 57 4
70 63 0
70 79 4
70 85 2
70 86 4
70 88 1
71 0 0
71 2 1
71 8 0
71 12 4
71 14 0
71 18 1
71 30 3
71 32 1
71 52 4
71 54 4
72 10 1
72 16 0
72 31 0
72 42 1
72 46 0
72 50 1
72 58 4
72 67 3
72 70 3
72 72 0
73 4 0
73 17 4
73 21 3
73 41 0
73 71 1
73 73 3
73 80 4
73 86 2
73 96 3
73 98 1
74 2 4
74 8 1
74 10 0
74 20 2
74 38 2
74 47 0
74 53 1
74 59 2
74 63 0
74 74 4
75 3 4
75 5 1
75 18 3
75 19 4
75 24 4
75 37 1
75 51 2
75 52 3
75 73 4
75 93 0
76 6 1
76 31 0
76 43 3
76 47 3
76 77 1
76 89 0
76 90 4
76 93 2
76 94 0
76 98 4
77 6 1
77 12 1
77 19 4
77 29 2
77 31 3
77 42 4
77 44 1
77 55 2
77 57 1
77 60 1
78 0 0
78 48 0
78 54 2
78 56 3
78 58 0
78 67 4
78 75 1
78 88 4
78 98 1
78 99 3
79 60 3
79 61 3
79 63 1
79 68 4
79 78 1
79 85 0
79 94 4
79 95 3
79 96 1
79 98 2
80 0 4
80 51 2
80 52 0
80 53 0
80 60 0
80 64 0
80 69 2
80 74 1
80 79 2
80 81 4
81 8 3
81 19 4
81 37 1
81 54 0
81 64 0
81 77 1
81 78 4
81 87 3
81 92 3
81 95 2
82 49 2
82 51 4
82 71 2
82 79 2
82 90 3
82 95 4
82 96 4
82 97 4
82 98 4
82 99 1
83 21 2
83 57 4
83 62 0
83 68 2
83 71 3
83 77 1
83 80 0
83 83 1
83 95 0
83 96 1
84 1 2
84 2 1
84 8 3
84 17 0
84 22 2
84 33 3
84 37 2
84 52 2
84 64 3
84 67 4
85 5 0
85 19 2
85 25 1
85 30 4
85 50 1
85 62 2
85 65 0
85 66 4
85 67 1
85 74 2
86 2 0
86 5 2
86 9 4
86 19 1
86 22 1
86 32 0
86 41 0
86 67 4
86 68 4
86 70 1
87 14 4
87 22 1
87 27 4
87 44 3
87 49 2
87 50 0
87 55 1
87 59 4
87 61 3
87 69 0
88 4 3
88 12 1
88 15 4
88 23 4
88 47 2
88 50 0
88 59 2
88 77 4
88 86 3
88 89 0
89 3 2
89 7 0
89 11 0
89 26 3
89 28 2
89 46 2
89 50 4
89 71 4
89 76 0
89 79 1
90 15 4
90 28 2
90 36 4
90 47 0
90 48 4
90 52 2
90 65 4
90 83 1
90 85 4
90 88 2
91 1 3
91 29 4
91 35 3
91 55 1
91 60 4
91 62 3
91 73 0
91 78 1
91 86 3
91 94 3
92 7 3
92 41 1
92 44 0
92 53 1
92 55 3
92 67 0
92 80 4
92 82 3
92 88 4
92 89 1
93 5 1
93 7 2
93 15 4
93 18 3
93 33 1
93 34 0
93 40 3
93 75 1
93 78 0
93 86 0
94 1 3
94 9 3
94 39 2
94 56 1
94 60 3
94 62 1
94 87 2
94 92 3
94 94 3
94 95 0
95 15 3
95 23 0
95 28 1
95 30 2
95 36 4
95 64 3
95 69 1
95 77 0
95 82 3
95 85 4
96 2 0
96 8 4
96 24 1
96 25 3
96 48 4
96 51 2
96 52 1
96 75 1
96 83 2
96 90 1
97 3 3
97 12 4
97 14 2
97 22 1
97 23 2
97 25 1
97 27 0
97 29 2
97 32 4
97 34 1
98 11 4
98 16 3
98 37 1
98 42 4
98 45 4
98 72 4
98 92 3
98 95 0
98 96 0
98 97 1
99 8 0
99 21 0
99 33 3
99 36 3
99 39 4
99 54 4
99 62 3
99 89 0
99 93 0
99 96 0
